* ENCODING=ISO-8859-1
NAME          CPLEX
ROWS
 N  obj1    
 G  c1      
 G  c2      
 G  c3      
 G  c4      
 G  c5      
 G  c6      
 G  c7      
 G  c8      
 G  c9      
 G  c10     
 G  c11     
 G  c12     
 G  c13     
 G  c14     
 G  c15     
 G  c16     
 G  c17     
 G  c18     
 G  c19     
 G  c20     
 G  c21     
 G  c22     
 G  c23     
 G  c24     
 G  c25     
 G  c26     
 G  c27     
 G  c28     
 G  c29     
 G  c30     
 G  c31     
 G  c32     
 G  c33     
 G  c34     
 G  c35     
COLUMNS
    MARK0000  'MARKER'                 'INTORG'
    x1        obj1                            1
    x1        c4                            877
    x1        c12                           907
    x1        c34                           909
    x2        obj1                            1
    x2        c13                           257
    x3        obj1                            1
    x3        c1                            789
    x3        c3                            289
    x3        c7                            410
    x3        c9                            104
    x3        c33                           829
    x3        c34                           960
    x3        c35                           916
    x4        obj1                            1
    x4        c8                            575
    x4        c15                           474
    x4        c20                           864
    x4        c31                           859
    x5        obj1                            1
    x5        c5                            869
    x5        c9                            684
    x5        c14                           359
    x6        obj1                            1
    x6        c8                            459
    x6        c33                           348
    x7        obj1                            1
    x7        c5                            689
    x7        c6                            180
    x7        c14                           393
    x8        obj1                            1
    x8        c7                            661
    x8        c9                            288
    x8        c18                           198
    x8        c23                           224
    x8        c35                           358
    x9        obj1                            1
    x9        c3                            260
    x9        c7                            571
    x9        c24                           175
    x9        c25                           769
    x9        c29                           317
    x9        c35                           881
    x10       obj1                            1
    x10       c8                            407
    x10       c17                           676
    x10       c20                           832
    x10       c31                           905
    x10       c35                           893
    x11       obj1                            1
    x11       c3                            731
    x11       c11                           332
    x11       c12                           855
    x11       c13                           718
    x11       c31                           446
    x11       c34                           717
    x12       obj1                            1
    x12       c1                            416
    x12       c11                           233
    x12       c15                           280
    x12       c34                           690
    x13       obj1                            1
    x13       c5                            123
    x13       c21                           192
    x13       c33                           391
    x13       c34                           771
    x14       obj1                            1
    x14       c2                            934
    x14       c11                           122
    x14       c12                           993
    x15       obj1                            1
    x15       c12                           732
    x15       c23                           598
    x15       c35                           525
    x16       obj1                            1
    x16       c10                           824
    x17       obj1                            1
    x17       c10                           486
    x17       c18                           561
    x17       c30                           589
    x18       obj1                            1
    x18       c17                           571
    x18       c27                           747
    x19       obj1                            1
    x19       c7                            172
    x20       obj1                            1
    x20       c3                            805
    x20       c6                            470
    x20       c25                           306
    x21       obj1                            1
    x21       c12                           636
    x21       c19                           936
    x21       c26                           626
    x21       c27                           322
    x21       c29                           369
    x21       c31                           927
    x22       obj1                            1
    x22       c5                            625
    x22       c10                           623
    x22       c16                           240
    x22       c27                           718
    x22       c32                           773
    x23       obj1                            1
    x23       c22                           478
    x23       c32                           234
    x24       obj1                            1
    x24       c20                           175
    x24       c26                           187
    x25       obj1                            1
    x25       c13                           242
    x26       obj1                            1
    x26       c2                            446
    x26       c9                            310
    x26       c13                           393
    x26       c15                           276
    x26       c31                           244
    x27       obj1                            1
    x27       c12                           919
    x27       c31                           858
    x28       obj1                            1
    x28       c9                            560
    x28       c13                           503
    x28       c18                           733
    x28       c19                           960
    x28       c22                           605
    x29       obj1                            1
    x30       obj1                            1
    x30       c2                            732
    x30       c7                            563
    x30       c14                           567
    x30       c29                           428
    x31       obj1                            1
    x31       c15                           519
    x31       c17                           828
    x32       obj1                            1
    x32       c20                           850
    x32       c22                           188
    x32       c27                           668
    x32       c30                           988
    x33       obj1                            1
    x33       c4                            774
    x33       c18                           182
    x33       c24                           924
    x33       c29                           938
    x34       obj1                            1
    x34       c6                            793
    x34       c15                           181
    x34       c22                           122
    x34       c27                           949
    x34       c28                           160
    x34       c34                           165
    x35       obj1                            1
    x35       c5                            337
    x35       c18                           787
    x35       c19                           666
    x35       c21                           161
    x36       obj1                            1
    x36       c6                            625
    x36       c7                            236
    x36       c15                           707
    x36       c17                           354
    x36       c20                           182
    x36       c29                           123
    x36       c31                           685
    x37       obj1                            1
    x37       c19                           176
    x37       c27                           930
    x38       obj1                            1
    x38       c21                           301
    x38       c28                           468
    x38       c34                           791
    x39       obj1                            1
    x39       c1                            670
    x39       c24                           653
    x40       obj1                            1
    x40       c16                           373
    x41       obj1                            1
    x41       c2                            974
    x41       c5                            706
    x41       c12                           267
    x41       c14                           528
    x41       c30                           839
    x41       c33                           340
    x42       obj1                            1
    x42       c18                           440
    x42       c22                           443
    x42       c23                           776
    x43       obj1                            1
    x43       c2                            902
    x43       c3                            616
    x43       c9                            365
    x43       c11                           560
    x43       c15                           301
    x43       c16                           697
    x43       c23                           323
    x43       c25                           218
    x44       obj1                            1
    x44       c4                            996
    x44       c6                            629
    x44       c26                           960
    x44       c27                           497
    x45       obj1                            1
    x45       c2                            180
    x45       c20                           843
    x45       c25                           728
    x46       obj1                            1
    x46       c3                            271
    x46       c8                            541
    x46       c13                           851
    x46       c14                           380
    x47       obj1                            1
    x47       c18                           683
    x47       c30                           652
    x47       c33                           817
    x48       obj1                            1
    x48       c5                            881
    x48       c26                           864
    x49       obj1                            1
    x49       c5                            354
    x50       obj1                            1
    x50       c13                           498
    x50       c24                           735
    x50       c26                           628
    x50       c28                           740
    x50       c34                           534
    x51       obj1                            1
    x51       c9                            510
    x51       c22                           761
    x52       obj1                            1
    x52       c19                           250
    x52       c20                           294
    x53       obj1                            1
    x53       c7                            631
    x53       c10                           376
    x53       c20                           336
    x54       obj1                            1
    x54       c5                            470
    x54       c13                           571
    x55       obj1                            1
    x55       c22                           824
    x55       c23                           201
    x55       c28                           779
    x56       obj1                            1
    x56       c6                            379
    x56       c20                           484
    x56       c24                           823
    x57       obj1                            1
    x57       c10                           641
    x57       c30                           247
    x58       obj1                            1
    x58       c2                            717
    x58       c18                           440
    x59       obj1                            1
    x59       c16                           507
    x59       c21                           643
    x59       c22                           415
    x59       c27                           605
    x59       c35                           277
    x60       obj1                            1
    x60       c2                            712
    x60       c11                           552
    x60       c22                           645
    x60       c27                           416
    x61       obj1                            1
    x61       c12                           565
    x61       c34                           807
    x62       obj1                            1
    x62       c10                           796
    x62       c11                           823
    x62       c13                           928
    x62       c26                           899
    x63       obj1                            1
    x63       c1                            687
    x63       c2                            528
    x63       c19                           860
    x63       c26                           912
    x63       c32                           442
    x63       c33                           824
    x64       obj1                            1
    x64       c9                            938
    x64       c33                           672
    x65       obj1                            1
    x65       c6                            918
    x65       c12                           181
    x66       obj1                            1
    x66       c1                            257
    x66       c11                           708
    x67       obj1                            1
    x67       c16                           228
    x67       c24                           697
    x67       c32                           577
    x67       c33                           194
    x68       obj1                            1
    x68       c5                            774
    x68       c6                            132
    x68       c10                           167
    x68       c14                           248
    x68       c19                           899
    x68       c33                           703
    x69       obj1                            1
    x69       c4                            255
    x69       c27                           580
    x70       obj1                            1
    x70       c9                            590
    x70       c13                           469
    x70       c15                           224
    x70       c20                           976
    x70       c28                           981
    MARK0001  'MARKER'                 'INTEND'
RHS
    rhs       c1                           1410
    rhs       c2                           3063
    rhs       c3                           1486
    rhs       c4                           1451
    rhs       c5                           2914
    rhs       c6                           2063
    rhs       c7                           1622
    rhs       c8                            991
    rhs       c9                           2175
    rhs       c10                          1957
    rhs       c11                          1665
    rhs       c12                          3028
    rhs       c13                          2715
    rhs       c14                          1238
    rhs       c15                          1481
    rhs       c16                          1023
    rhs       c17                          1215
    rhs       c18                          2012
    rhs       c19                          2374
    rhs       c20                          2918
    rhs       c21                           649
    rhs       c22                          2241
    rhs       c23                          1061
    rhs       c24                          2004
    rhs       c25                          1011
    rhs       c26                          2538
    rhs       c27                          3216
    rhs       c28                          1564
    rhs       c29                          1088
    rhs       c30                          1658
    rhs       c31                          2462
    rhs       c32                          1013
    rhs       c33                          2559
    rhs       c34                          3172
    rhs       c35                          1925
BOUNDS
 LI bnd       x1        0
 LI bnd       x2        0
 LI bnd       x3        0
 LI bnd       x4        0
 LI bnd       x5        0
 LI bnd       x6        0
 LI bnd       x7        0
 LI bnd       x8        0
 LI bnd       x9        0
 LI bnd       x10       0
 LI bnd       x11       0
 LI bnd       x12       0
 LI bnd       x13       0
 LI bnd       x14       0
 LI bnd       x15       0
 LI bnd       x16       0
 LI bnd       x17       0
 LI bnd       x18       0
 LI bnd       x19       0
 LI bnd       x20       0
 LI bnd       x21       0
 LI bnd       x22       0
 LI bnd       x23       0
 LI bnd       x24       0
 LI bnd       x25       0
 LI bnd       x26       0
 LI bnd       x27       0
 LI bnd       x28       0
 LI bnd       x29       0
 LI bnd       x30       0
 LI bnd       x31       0
 LI bnd       x32       0
 LI bnd       x33       0
 LI bnd       x34       0
 LI bnd       x35       0
 LI bnd       x36       0
 LI bnd       x37       0
 LI bnd       x38       0
 LI bnd       x39       0
 LI bnd       x40       0
 LI bnd       x41       0
 LI bnd       x42       0
 LI bnd       x43       0
 LI bnd       x44       0
 LI bnd       x45       0
 LI bnd       x46       0
 LI bnd       x47       0
 LI bnd       x48       0
 LI bnd       x49       0
 LI bnd       x50       0
 LI bnd       x51       0
 LI bnd       x52       0
 LI bnd       x53       0
 LI bnd       x54       0
 LI bnd       x55       0
 LI bnd       x56       0
 LI bnd       x57       0
 LI bnd       x58       0
 LI bnd       x59       0
 LI bnd       x60       0
 LI bnd       x61       0
 LI bnd       x62       0
 LI bnd       x63       0
 LI bnd       x64       0
 LI bnd       x65       0
 LI bnd       x66       0
 LI bnd       x67       0
 LI bnd       x68       0
 LI bnd       x69       0
 LI bnd       x70       0
ENDATA
